166
130
54
250
81
350
477
468
220
258
320
110
478
364
61
450
205
203
467
113
124
500
457
356
468
473
497
224
58
494
354
250
327
314
448
322
294
280
277
368
255
262
332
465
268
30
477
122
408
287
439
309
152
177
65
260
469
188
351
422
311
303
252
105
194
11
48
345
152
267
23
294
467
217
41
444
465
371
143
430
382
11
478
16
470
223
450
449
442
17
280
180
303
353
433
264
344
453
206
94
413
117
29
325
132
271
217
383
11
477
317
346
179
481
314
437
82
125
348
240
183
134
322
111
143
301
154
354
1
384
231
397
58
196
417
210
369
316
286
135
144
69
290
348
194
43
101
489
488
194
32
313
174
381
396
74
399
163
10
136
232
24
422
331
70
30
415
364
